\Problem name: 

Minimize
obj: x0 + x1 + x2 + x3 + x4 + x5 + x6 + x7 + x8 + x9
 + x10 + x11 + x12 + x13 + x14 + x15 + x16 + x17 + x18 + x19
 + x20 + x21 + x22 + x23 + x24 + x25 + x26 + x27 + x28 + x29
 + x30 + x31 + x32 + x33 + x34 + x35 + x36 + x37 + x38 + x39
 + x40 + x41 + x42 + x43 + x44 + x45 + x46 + x47 + x48 + x49
 + x50 + x51 + x52 + x53 + x54 + x55 + x56 + x57 + x58 + x59
Subject To
Raio_15_Distrito_0:  x0 + x17 + x19 + x21 + x33 + x37 + x51 + x55 >= 1
Raio_15_Distrito_1:  x1 + x3 + x5 + x16 + x26 + x53 + x59 >= 1
Raio_15_Distrito_2:  x2 + x43 + x53 >= 1
Raio_15_Distrito_3:  x1 + x3 + x5 + x16 + x26 + x53 + x59 >= 1
Raio_15_Distrito_4:  x4 + x31 + x32 + x37 + x40 + x42 + x54 >= 1
Raio_15_Distrito_5:  x1 + x3 + x5 + x15 + x16 + x26 + x43 + x53 + x59 >= 1
Raio_15_Distrito_6:  x6 + x22 >= 1
Raio_15_Distrito_7:  x7 + x9 + x36 + x56 >= 1
Raio_15_Distrito_8:  x8 + x9 + x11 + x27 + x39 + x58 >= 1
Raio_15_Distrito_9:  x7 + x8 + x9 + x11 + x36 + x39 + x56 + x58 >= 1
Raio_15_Distrito_10:  x10 >= 1
Raio_15_Distrito_11:  x8 + x9 + x11 + x27 + x39 + x56 + x58 >= 1
Raio_15_Distrito_12:  x12 + x18 >= 1
Raio_15_Distrito_13:  x13 + x24 >= 1
Raio_15_Distrito_14:  x14 + x38 + x41 + x42 >= 1
Raio_15_Distrito_15:  x5 + x15 + x16 + x46 >= 1
Raio_15_Distrito_16:  x1 + x3 + x5 + x15 + x16 + x26 + x43 + x53 >= 1
Raio_15_Distrito_17:  x0 + x17 + x19 + x20 + x51 + x55 >= 1
Raio_15_Distrito_18:  x12 + x18 + x38 >= 1
Raio_15_Distrito_19:  x0 + x17 + x19 + x20 + x21 + x49 + x55 >= 1
Raio_15_Distrito_20:  x17 + x19 + x20 + x55 >= 1
Raio_15_Distrito_21:  x0 + x19 + x21 + x49 >= 1
Raio_15_Distrito_22:  x6 + x22 >= 1
Raio_15_Distrito_23:  x23 + x28 + x29 + x44 + x46 >= 1
Raio_15_Distrito_24:  x13 + x24 >= 1
Raio_15_Distrito_25:  x25 + x47 + x57 >= 1
Raio_15_Distrito_26:  x1 + x3 + x5 + x16 + x26 + x50 + x53 + x59 >= 1
Raio_15_Distrito_27:  x8 + x11 + x27 + x58 >= 1
Raio_15_Distrito_28:  x23 + x28 + x34 + x45 >= 1
Raio_15_Distrito_29:  x23 + x29 + x46 >= 1
Raio_15_Distrito_30:  x30 >= 1
Raio_15_Distrito_31:  x4 + x31 + x32 + x40 + x54 >= 1
Raio_15_Distrito_32:  x4 + x31 + x32 + x40 >= 1
Raio_15_Distrito_33:  x0 + x33 + x37 + x38 + x42 >= 1
Raio_15_Distrito_34:  x28 + x34 + x39 + x44 + x45 + x48 >= 1
Raio_15_Distrito_35:  x35 >= 1
Raio_15_Distrito_36:  x7 + x9 + x36 + x56 >= 1
Raio_15_Distrito_37:  x0 + x4 + x33 + x37 + x51 + x55 >= 1
Raio_15_Distrito_38:  x14 + x18 + x33 + x38 + x41 + x42 >= 1
Raio_15_Distrito_39:  x8 + x9 + x11 + x34 + x39 + x45 + x48 + x56 + x58 >= 1
Raio_15_Distrito_40:  x4 + x31 + x32 + x40 + x54 >= 1
Raio_15_Distrito_41:  x14 + x38 + x41 >= 1
Raio_15_Distrito_42:  x4 + x14 + x33 + x38 + x42 >= 1
Raio_15_Distrito_43:  x2 + x5 + x16 + x43 + x53 >= 1
Raio_15_Distrito_44:  x23 + x34 + x44 + x46 + x48 + x52 >= 1
Raio_15_Distrito_45:  x28 + x34 + x39 + x45 + x48 >= 1
Raio_15_Distrito_46:  x15 + x23 + x29 + x44 + x46 + x50 + x52 >= 1
Raio_15_Distrito_47:  x25 + x47 + x57 >= 1
Raio_15_Distrito_48:  x34 + x39 + x44 + x45 + x48 >= 1
Raio_15_Distrito_49:  x19 + x21 + x49 >= 1
Raio_15_Distrito_50:  x26 + x46 + x50 + x52 >= 1
Raio_15_Distrito_51:  x0 + x17 + x37 + x51 + x55 >= 1
Raio_15_Distrito_52:  x44 + x46 + x50 + x52 >= 1
Raio_15_Distrito_53:  x1 + x2 + x3 + x5 + x16 + x26 + x43 + x53 + x59 >= 1
Raio_15_Distrito_54:  x4 + x31 + x40 + x54 + x57 >= 1
Raio_15_Distrito_55:  x0 + x17 + x19 + x20 + x37 + x51 + x55 >= 1
Raio_15_Distrito_56:  x7 + x9 + x11 + x36 + x39 + x56 >= 1
Raio_15_Distrito_57:  x25 + x47 + x54 + x57 >= 1
Raio_15_Distrito_58:  x8 + x9 + x11 + x27 + x39 + x58 >= 1
Raio_15_Distrito_59:  x1 + x3 + x5 + x26 + x53 + x59 >= 1
Raio_20_Distrito_0:  x0 + x17 + x19 + x20 + x21 + x33 + x37 + x42 + x51 + x55
 >= 2
Raio_20_Distrito_1:  x1 + x2 + x3 + x5 + x16 + x26 + x43 + x50 + x53 + x59
 >= 2
Raio_20_Distrito_2:  x1 + x2 + x3 + x5 + x16 + x43 + x53 + x59 >= 2
Raio_20_Distrito_3:  x1 + x2 + x3 + x5 + x16 + x26 + x43 + x53 + x59 >= 2
Raio_20_Distrito_4:  x4 + x31 + x32 + x33 + x37 + x40 + x42 + x51 + x54 >= 2
Raio_20_Distrito_5:  x1 + x2 + x3 + x5 + x15 + x16 + x26 + x30 + x43 + x50
 + x53 + x59 >= 2
Raio_20_Distrito_6:  x6 + x22 >= 2
Raio_20_Distrito_7:  x7 + x9 + x11 + x22 + x36 + x39 + x56 >= 2
Raio_20_Distrito_8:  x8 + x9 + x11 + x27 + x34 + x39 + x48 + x56 + x58 >= 2
Raio_20_Distrito_9:  x7 + x8 + x9 + x11 + x27 + x34 + x36 + x39 + x48 + x56
 + x58 >= 2
Raio_20_Distrito_10:  x10 + x22 >= 2
Raio_20_Distrito_11:  x7 + x8 + x9 + x11 + x27 + x34 + x36 + x39 + x45 + x48
 + x56 + x58 >= 2
Raio_20_Distrito_12:  x12 + x18 >= 2
Raio_20_Distrito_13:  x13 + x24 + x47 >= 2
Raio_20_Distrito_14:  x14 + x18 + x33 + x38 + x41 + x42 >= 2
Raio_20_Distrito_15:  x5 + x15 + x16 + x26 + x29 + x30 + x46 + x50 + x53 >= 2
Raio_20_Distrito_16:  x1 + x2 + x3 + x5 + x15 + x16 + x26 + x30 + x43 + x46
 + x50 + x53 + x59 >= 2
Raio_20_Distrito_17:  x0 + x17 + x19 + x20 + x21 + x37 + x51 + x55 >= 2
Raio_20_Distrito_18:  x12 + x14 + x18 + x38 + x41 >= 2
Raio_20_Distrito_19:  x0 + x17 + x19 + x20 + x21 + x49 + x51 + x55 >= 2
Raio_20_Distrito_20:  x0 + x17 + x19 + x20 + x21 + x49 + x51 + x55 >= 2
Raio_20_Distrito_21:  x0 + x17 + x19 + x20 + x21 + x49 + x55 >= 2
Raio_20_Distrito_22:  x6 + x7 + x10 + x22 + x36 + x56 >= 2
Raio_20_Distrito_23:  x23 + x28 + x29 + x34 + x44 + x46 + x48 + x52 >= 2
Raio_20_Distrito_24:  x13 + x24 + x47 >= 2
Raio_20_Distrito_25:  x25 + x47 + x57 >= 2
Raio_20_Distrito_26:  x1 + x3 + x5 + x15 + x16 + x26 + x35 + x50 + x52 + x53
 + x59 >= 2
Raio_20_Distrito_27:  x8 + x9 + x11 + x27 + x58 >= 2
Raio_20_Distrito_28:  x23 + x28 + x34 + x39 + x44 + x45 + x48 >= 2
Raio_20_Distrito_29:  x15 + x23 + x29 + x32 + x37 + x44 + x46 + x51 >= 2
Raio_20_Distrito_30:  x5 + x15 + x16 + x30 + x32 + x43 >= 2
Raio_20_Distrito_31:  x4 + x31 + x32 + x33 + x40 + x42 + x54 + x57 >= 2
Raio_20_Distrito_32:  x4 + x29 + x30 + x31 + x32 + x37 + x40 + x54 >= 2
Raio_20_Distrito_33:  x0 + x4 + x14 + x31 + x33 + x37 + x38 + x40 + x42 + x51
 + x55 >= 2
Raio_20_Distrito_34:  x8 + x9 + x11 + x23 + x28 + x34 + x39 + x44 + x45 + x48
 + x52 + x56 + x58 >= 2
Raio_20_Distrito_35:  x26 + x35 + x50 + x52 >= 2
Raio_20_Distrito_36:  x7 + x9 + x11 + x22 + x36 + x56 >= 2
Raio_20_Distrito_37:  x0 + x4 + x17 + x29 + x32 + x33 + x37 + x42 + x51 + x55
 >= 2
Raio_20_Distrito_38:  x14 + x18 + x33 + x38 + x41 + x42 >= 2
Raio_20_Distrito_39:  x7 + x8 + x9 + x11 + x28 + x34 + x39 + x44 + x45 + x48
 + x56 + x58 >= 2
Raio_20_Distrito_40:  x4 + x31 + x32 + x33 + x40 + x42 + x54 + x57 >= 2
Raio_20_Distrito_41:  x14 + x18 + x38 + x41 + x42 >= 2
Raio_20_Distrito_42:  x0 + x4 + x14 + x31 + x33 + x37 + x38 + x40 + x41 + x42
 + x51 >= 2
Raio_20_Distrito_43:  x1 + x2 + x3 + x5 + x16 + x30 + x43 + x53 + x59 >= 2
Raio_20_Distrito_44:  x23 + x28 + x29 + x34 + x39 + x44 + x45 + x46 + x48 + x50
 + x52 >= 2
Raio_20_Distrito_45:  x11 + x28 + x34 + x39 + x44 + x45 + x48 + x56 >= 2
Raio_20_Distrito_46:  x15 + x16 + x23 + x29 + x44 + x46 + x50 + x52 >= 2
Raio_20_Distrito_47:  x13 + x24 + x25 + x47 + x57 >= 2
Raio_20_Distrito_48:  x8 + x9 + x11 + x23 + x28 + x34 + x39 + x44 + x45 + x48
 + x52 + x56 + x58 >= 2
Raio_20_Distrito_49:  x19 + x20 + x21 + x49 >= 2
Raio_20_Distrito_50:  x1 + x5 + x15 + x16 + x26 + x35 + x44 + x46 + x50 + x52
 >= 2
Raio_20_Distrito_51:  x0 + x4 + x17 + x19 + x20 + x29 + x33 + x37 + x42 + x51
 + x55 >= 2
Raio_20_Distrito_52:  x23 + x26 + x34 + x35 + x44 + x46 + x48 + x50 + x52 >= 2
Raio_20_Distrito_53:  x1 + x2 + x3 + x5 + x15 + x16 + x26 + x43 + x53 + x59
 >= 2
Raio_20_Distrito_54:  x4 + x31 + x32 + x40 + x54 + x57 >= 2
Raio_20_Distrito_55:  x0 + x17 + x19 + x20 + x21 + x33 + x37 + x51 + x55 >= 2
Raio_20_Distrito_56:  x7 + x8 + x9 + x11 + x22 + x34 + x36 + x39 + x45 + x48
 + x56 + x58 >= 2
Raio_20_Distrito_57:  x25 + x31 + x40 + x47 + x54 + x57 >= 2
Raio_20_Distrito_58:  x8 + x9 + x11 + x27 + x34 + x39 + x48 + x56 + x58 >= 2
Raio_20_Distrito_59:  x1 + x2 + x3 + x5 + x16 + x26 + x43 + x53 + x59 >= 2
Raio_25_Distrito_0:  x0 + x4 + x17 + x19 + x20 + x21 + x33 + x37 + x38 + x42
 + x51 + x55 >= 3
Raio_25_Distrito_1:  x1 + x2 + x3 + x5 + x15 + x16 + x26 + x35 + x43 + x50
 + x53 + x59 >= 3
Raio_25_Distrito_2:  x1 + x2 + x3 + x5 + x16 + x30 + x43 + x53 + x59 >= 3
Raio_25_Distrito_3:  x1 + x2 + x3 + x5 + x15 + x16 + x26 + x43 + x50 + x53
 + x59 >= 3
Raio_25_Distrito_4:  x0 + x4 + x14 + x29 + x31 + x32 + x33 + x37 + x40 + x42
 + x51 + x54 + x55 >= 3
Raio_25_Distrito_5:  x1 + x2 + x3 + x5 + x15 + x16 + x26 + x30 + x43 + x46
 + x50 + x53 + x59 >= 3
Raio_25_Distrito_6:  x6 + x10 + x22 + x36 >= 3
Raio_25_Distrito_7:  x7 + x8 + x9 + x11 + x22 + x36 + x39 + x45 + x56 + x58
 >= 3
Raio_25_Distrito_8:  x7 + x8 + x9 + x11 + x27 + x34 + x36 + x39 + x45 + x48
 + x52 + x56 + x58 >= 3
Raio_25_Distrito_9:  x7 + x8 + x9 + x11 + x27 + x34 + x36 + x39 + x45 + x48
 + x56 + x58 >= 3
Raio_25_Distrito_10:  x6 + x10 + x20 + x22 + x28 + x45 >= 3
Raio_25_Distrito_11:  x7 + x8 + x9 + x11 + x27 + x34 + x36 + x39 + x45 + x48
 + x56 + x58 >= 3
Raio_25_Distrito_12:  x12 + x18 + x38 >= 3
Raio_25_Distrito_13:  x13 + x24 + x25 + x47 >= 3
Raio_25_Distrito_14:  x4 + x14 + x18 + x31 + x33 + x38 + x40 + x41 + x42 >= 3
Raio_25_Distrito_15:  x1 + x3 + x5 + x15 + x16 + x23 + x26 + x29 + x30 + x32
 + x43 + x44 + x46 + x50 + x52 + x53 >= 3
Raio_25_Distrito_16:  x1 + x2 + x3 + x5 + x15 + x16 + x26 + x30 + x43 + x46
 + x50 + x52 + x53 + x59 >= 3
Raio_25_Distrito_17:  x0 + x17 + x19 + x20 + x21 + x33 + x37 + x49 + x51 + x55
 >= 3
Raio_25_Distrito_18:  x12 + x14 + x18 + x38 + x41 >= 3
Raio_25_Distrito_19:  x0 + x17 + x19 + x20 + x21 + x33 + x37 + x49 + x51 + x55
 >= 3
Raio_25_Distrito_20:  x0 + x10 + x17 + x19 + x20 + x21 + x37 + x49 + x51 + x55
 >= 3
Raio_25_Distrito_21:  x0 + x17 + x19 + x20 + x21 + x33 + x49 + x51 + x55 >= 3
Raio_25_Distrito_22:  x6 + x7 + x10 + x22 + x36 + x45 + x56 >= 3
Raio_25_Distrito_23:  x15 + x23 + x28 + x29 + x34 + x37 + x39 + x44 + x45 + x46
 + x48 + x50 + x51 + x52 >= 3
Raio_25_Distrito_24:  x13 + x24 + x47 >= 3
Raio_25_Distrito_25:  x13 + x25 + x30 + x47 + x54 + x57 >= 3
Raio_25_Distrito_26:  x1 + x3 + x5 + x15 + x16 + x26 + x35 + x43 + x46 + x50
 + x52 + x53 + x59 >= 3
Raio_25_Distrito_27:  x8 + x9 + x11 + x27 + x34 + x35 + x39 + x48 + x52 + x58
 >= 3
Raio_25_Distrito_28:  x10 + x23 + x28 + x29 + x34 + x39 + x44 + x45 + x48 + x56
 >= 3
Raio_25_Distrito_29:  x4 + x15 + x23 + x28 + x29 + x32 + x37 + x44 + x46 + x51
 + x55 >= 3
Raio_25_Distrito_30:  x2 + x5 + x15 + x16 + x25 + x30 + x32 + x43 + x46 + x53
 + x54 >= 3
Raio_25_Distrito_31:  x4 + x14 + x31 + x32 + x33 + x37 + x40 + x42 + x54 + x57
 >= 3
Raio_25_Distrito_32:  x4 + x15 + x29 + x30 + x31 + x32 + x37 + x40 + x42 + x46
 + x51 + x54 >= 3
Raio_25_Distrito_33:  x0 + x4 + x14 + x17 + x19 + x21 + x31 + x33 + x37 + x38
 + x40 + x41 + x42 + x51 + x55 >= 3
Raio_25_Distrito_34:  x8 + x9 + x11 + x23 + x27 + x28 + x34 + x39 + x44 + x45
 + x46 + x48 + x52 + x56 + x58 >= 3
Raio_25_Distrito_35:  x1 + x26 + x27 + x35 + x50 + x52 >= 3
Raio_25_Distrito_36:  x6 + x7 + x8 + x9 + x11 + x22 + x36 + x39 + x45 + x56
 + x58 >= 3
Raio_25_Distrito_37:  x0 + x4 + x17 + x19 + x20 + x23 + x29 + x31 + x32 + x33
 + x37 + x40 + x42 + x51 + x55 >= 3
Raio_25_Distrito_38:  x0 + x12 + x14 + x18 + x33 + x38 + x41 + x42 >= 3
Raio_25_Distrito_39:  x7 + x8 + x9 + x11 + x23 + x27 + x28 + x34 + x36 + x39
 + x44 + x45 + x48 + x52 + x56 + x58 >= 3
Raio_25_Distrito_40:  x4 + x14 + x31 + x32 + x33 + x37 + x40 + x42 + x54 + x57
 >= 3
Raio_25_Distrito_41:  x14 + x18 + x33 + x38 + x41 + x42 >= 3
Raio_25_Distrito_42:  x0 + x4 + x14 + x31 + x32 + x33 + x37 + x38 + x40 + x41
 + x42 + x51 + x54 + x55 >= 3
Raio_25_Distrito_43:  x1 + x2 + x3 + x5 + x15 + x16 + x26 + x30 + x43 + x53
 + x59 >= 3
Raio_25_Distrito_44:  x15 + x23 + x28 + x29 + x34 + x39 + x44 + x45 + x46 + x48
 + x50 + x52 >= 3
Raio_25_Distrito_45:  x7 + x8 + x9 + x10 + x11 + x22 + x23 + x28 + x34 + x36
 + x39 + x44 + x45 + x48 + x56 + x58 >= 3
Raio_25_Distrito_46:  x5 + x15 + x16 + x23 + x26 + x29 + x30 + x32 + x34 + x44
 + x46 + x48 + x50 + x52 >= 3
Raio_25_Distrito_47:  x13 + x24 + x25 + x47 + x57 >= 3
Raio_25_Distrito_48:  x8 + x9 + x11 + x23 + x27 + x28 + x34 + x39 + x44 + x45
 + x46 + x48 + x50 + x52 + x56 + x58 >= 3
Raio_25_Distrito_49:  x17 + x19 + x20 + x21 + x49 >= 3
Raio_25_Distrito_50:  x1 + x3 + x5 + x15 + x16 + x23 + x26 + x35 + x44 + x46
 + x48 + x50 + x52 + x53 >= 3
Raio_25_Distrito_51:  x0 + x4 + x17 + x19 + x20 + x21 + x23 + x29 + x32 + x33
 + x37 + x42 + x51 + x55 >= 3
Raio_25_Distrito_52:  x8 + x15 + x16 + x23 + x26 + x27 + x34 + x35 + x39 + x44
 + x46 + x48 + x50 + x52 + x58 >= 3
Raio_25_Distrito_53:  x1 + x2 + x3 + x5 + x15 + x16 + x26 + x30 + x43 + x50
 + x53 + x59 >= 3
Raio_25_Distrito_54:  x4 + x25 + x30 + x31 + x32 + x40 + x42 + x54 + x57 >= 3
Raio_25_Distrito_55:  x0 + x4 + x17 + x19 + x20 + x21 + x29 + x33 + x37 + x42
 + x51 + x55 >= 3
Raio_25_Distrito_56:  x7 + x8 + x9 + x11 + x22 + x28 + x34 + x36 + x39 + x45
 + x48 + x56 + x58 >= 3
Raio_25_Distrito_57:  x25 + x31 + x40 + x47 + x54 + x57 >= 3
Raio_25_Distrito_58:  x7 + x8 + x9 + x11 + x27 + x34 + x36 + x39 + x45 + x48
 + x52 + x56 + x58 >= 3
Raio_25_Distrito_59:  x1 + x2 + x3 + x5 + x16 + x26 + x43 + x53 + x59 >= 3
Raio_30_Distrito_0:  x0 + x4 + x14 + x17 + x19 + x20 + x21 + x31 + x33 + x37
 + x38 + x40 + x41 + x42 + x49 + x51 + x55 >= 4
Raio_30_Distrito_1:  x1 + x2 + x3 + x5 + x15 + x16 + x26 + x30 + x35 + x43
 + x46 + x50 + x52 + x53 + x59 >= 4
Raio_30_Distrito_2:  x1 + x2 + x3 + x5 + x15 + x16 + x25 + x26 + x30 + x43
 + x53 + x59 >= 4
Raio_30_Distrito_3:  x1 + x2 + x3 + x5 + x15 + x16 + x26 + x30 + x35 + x43
 + x50 + x52 + x53 + x59 >= 4
Raio_30_Distrito_4:  x0 + x4 + x14 + x17 + x29 + x30 + x31 + x32 + x33 + x37
 + x38 + x40 + x41 + x42 + x51 + x54 + x55 + x57 >= 4
Raio_30_Distrito_5:  x1 + x2 + x3 + x5 + x15 + x16 + x26 + x30 + x35 + x43
 + x46 + x50 + x52 + x53 + x59 >= 4
Raio_30_Distrito_6:  x6 + x7 + x10 + x22 + x36 >= 4
Raio_30_Distrito_7:  x6 + x7 + x8 + x9 + x11 + x22 + x27 + x34 + x36 + x39
 + x45 + x48 + x56 + x58 >= 4
Raio_30_Distrito_8:  x7 + x8 + x9 + x11 + x27 + x34 + x35 + x36 + x39 + x44
 + x45 + x48 + x52 + x56 + x58 >= 4
Raio_30_Distrito_9:  x7 + x8 + x9 + x11 + x22 + x27 + x28 + x34 + x36 + x39
 + x44 + x45 + x48 + x52 + x56 + x58 >= 4
Raio_30_Distrito_10:  x6 + x10 + x17 + x19 + x20 + x22 + x28 + x45 + x49 >= 4
Raio_30_Distrito_11:  x7 + x8 + x9 + x11 + x27 + x28 + x34 + x36 + x39 + x44
 + x45 + x48 + x52 + x56 + x58 >= 4
Raio_30_Distrito_12:  x12 + x18 + x38 + x41 >= 4
Raio_30_Distrito_13:  x13 + x24 + x25 + x47 + x57 >= 4
Raio_30_Distrito_14:  x0 + x4 + x14 + x18 + x31 + x33 + x37 + x38 + x40 + x41
 + x42 + x54 >= 4
Raio_30_Distrito_15:  x1 + x2 + x3 + x5 + x15 + x16 + x23 + x26 + x29 + x30
 + x32 + x43 + x44 + x46 + x50 + x52 + x53 + x59 >= 4
Raio_30_Distrito_16:  x1 + x2 + x3 + x5 + x15 + x16 + x26 + x30 + x32 + x35
 + x43 + x44 + x46 + x50 + x52 + x53 + x59 >= 4
Raio_30_Distrito_17:  x0 + x4 + x10 + x17 + x19 + x20 + x21 + x28 + x29 + x33
 + x37 + x42 + x49 + x51 + x55 >= 4
Raio_30_Distrito_18:  x12 + x14 + x18 + x33 + x38 + x41 + x42 >= 4
Raio_30_Distrito_19:  x0 + x10 + x17 + x19 + x20 + x21 + x33 + x37 + x42 + x49
 + x51 + x55 >= 4
Raio_30_Distrito_20:  x0 + x10 + x17 + x19 + x20 + x21 + x28 + x33 + x37 + x49
 + x51 + x55 >= 4
Raio_30_Distrito_21:  x0 + x17 + x19 + x20 + x21 + x33 + x37 + x38 + x42 + x49
 + x51 + x55 >= 4
Raio_30_Distrito_22:  x6 + x7 + x9 + x10 + x22 + x28 + x36 + x39 + x45 + x56
 >= 4
Raio_30_Distrito_23:  x15 + x23 + x28 + x29 + x32 + x34 + x37 + x39 + x44 + x45
 + x46 + x48 + x50 + x51 + x52 + x55 >= 4
Raio_30_Distrito_24:  x13 + x24 + x25 + x47 >= 4
Raio_30_Distrito_25:  x2 + x13 + x24 + x25 + x30 + x31 + x32 + x40 + x43 + x47
 + x54 + x57 >= 4
Raio_30_Distrito_26:  x1 + x2 + x3 + x5 + x15 + x16 + x26 + x35 + x43 + x44
 + x46 + x50 + x52 + x53 + x59 >= 4
Raio_30_Distrito_27:  x7 + x8 + x9 + x11 + x27 + x34 + x35 + x39 + x44 + x48
 + x50 + x52 + x56 + x58 >= 4
Raio_30_Distrito_28:  x9 + x10 + x11 + x17 + x20 + x22 + x23 + x28 + x29 + x34
 + x37 + x39 + x44 + x45 + x46 + x48 + x51 + x52 + x55 + x56
 >= 4
Raio_30_Distrito_29:  x4 + x15 + x17 + x23 + x28 + x29 + x30 + x31 + x32 + x33
 + x34 + x37 + x40 + x44 + x45 + x46 + x48 + x50 + x51 + x52
 + x55 >= 4
Raio_30_Distrito_30:  x1 + x2 + x3 + x4 + x5 + x15 + x16 + x25 + x29 + x30
 + x31 + x32 + x40 + x43 + x46 + x53 + x54 + x57 >= 4
Raio_30_Distrito_31:  x0 + x4 + x14 + x25 + x29 + x30 + x31 + x32 + x33 + x37
 + x38 + x40 + x41 + x42 + x51 + x54 + x57 >= 4
Raio_30_Distrito_32:  x4 + x15 + x16 + x23 + x25 + x29 + x30 + x31 + x32 + x33
 + x37 + x40 + x42 + x46 + x51 + x54 + x55 + x57 >= 4
Raio_30_Distrito_33:  x0 + x4 + x14 + x17 + x18 + x19 + x20 + x21 + x29 + x31
 + x32 + x33 + x37 + x38 + x40 + x41 + x42 + x51 + x54 + x55
 >= 4
Raio_30_Distrito_34:  x7 + x8 + x9 + x11 + x23 + x27 + x28 + x29 + x34 + x36
 + x39 + x44 + x45 + x46 + x48 + x50 + x52 + x56 + x58 >= 4
Raio_30_Distrito_35:  x1 + x3 + x5 + x8 + x16 + x26 + x27 + x35 + x44 + x50
 + x52 + x53 + x58 + x59 >= 4
Raio_30_Distrito_36:  x6 + x7 + x8 + x9 + x11 + x22 + x34 + x36 + x39 + x45
 + x48 + x56 + x58 >= 4
Raio_30_Distrito_37:  x0 + x4 + x14 + x17 + x19 + x20 + x21 + x23 + x28 + x29
 + x31 + x32 + x33 + x37 + x38 + x40 + x42 + x51 + x54 + x55
 >= 4
Raio_30_Distrito_38:  x0 + x4 + x12 + x14 + x18 + x21 + x31 + x33 + x37 + x38
 + x40 + x41 + x42 >= 4
Raio_30_Distrito_39:  x7 + x8 + x9 + x11 + x22 + x23 + x27 + x28 + x34 + x36
 + x39 + x44 + x45 + x46 + x48 + x50 + x52 + x56 + x58 >= 4
Raio_30_Distrito_40:  x0 + x4 + x14 + x25 + x29 + x30 + x31 + x32 + x33 + x37
 + x38 + x40 + x41 + x42 + x51 + x54 + x57 >= 4
Raio_30_Distrito_41:  x0 + x4 + x12 + x14 + x18 + x31 + x33 + x38 + x40 + x41
 + x42 + x54 >= 4
Raio_30_Distrito_42:  x0 + x4 + x14 + x17 + x18 + x19 + x21 + x31 + x32 + x33
 + x37 + x38 + x40 + x41 + x42 + x51 + x54 + x55 >= 4
Raio_30_Distrito_43:  x1 + x2 + x3 + x5 + x15 + x16 + x25 + x26 + x30 + x43
 + x53 + x59 >= 4
Raio_30_Distrito_44:  x8 + x9 + x11 + x15 + x16 + x23 + x26 + x27 + x28 + x29
 + x34 + x35 + x39 + x44 + x45 + x46 + x48 + x50 + x52 + x56
 + x58 >= 4
Raio_30_Distrito_45:  x7 + x8 + x9 + x10 + x11 + x22 + x23 + x28 + x29 + x34
 + x36 + x39 + x44 + x45 + x46 + x48 + x52 + x56 + x58 >= 4
Raio_30_Distrito_46:  x1 + x5 + x15 + x16 + x23 + x26 + x28 + x29 + x30 + x32
 + x34 + x39 + x44 + x45 + x46 + x48 + x50 + x52 + x53 >= 4
Raio_30_Distrito_47:  x13 + x24 + x25 + x47 + x54 + x57 >= 4
Raio_30_Distrito_48:  x7 + x8 + x9 + x11 + x23 + x27 + x28 + x29 + x34 + x36
 + x39 + x44 + x45 + x46 + x48 + x50 + x52 + x56 + x58 >= 4
Raio_30_Distrito_49:  x0 + x10 + x17 + x19 + x20 + x21 + x49 + x55 >= 4
Raio_30_Distrito_50:  x1 + x3 + x5 + x15 + x16 + x23 + x26 + x27 + x29 + x34
 + x35 + x39 + x44 + x46 + x48 + x50 + x52 + x53 + x58 + x59
 >= 4
Raio_30_Distrito_51:  x0 + x4 + x17 + x19 + x20 + x21 + x23 + x28 + x29 + x31
 + x32 + x33 + x37 + x40 + x42 + x51 + x55 >= 4
Raio_30_Distrito_52:  x1 + x3 + x5 + x8 + x9 + x11 + x15 + x16 + x23 + x26
 + x27 + x28 + x29 + x34 + x35 + x39 + x44 + x45 + x46 + x48
 + x50 + x52 + x53 + x58 >= 4
Raio_30_Distrito_53:  x1 + x2 + x3 + x5 + x15 + x16 + x26 + x30 + x35 + x43
 + x46 + x50 + x52 + x53 + x59 >= 4
Raio_30_Distrito_54:  x4 + x14 + x25 + x30 + x31 + x32 + x33 + x37 + x40 + x41
 + x42 + x47 + x54 + x57 >= 4
Raio_30_Distrito_55:  x0 + x4 + x17 + x19 + x20 + x21 + x23 + x28 + x29 + x32
 + x33 + x37 + x42 + x49 + x51 + x55 >= 4
Raio_30_Distrito_56:  x7 + x8 + x9 + x11 + x22 + x27 + x28 + x34 + x36 + x39
 + x44 + x45 + x48 + x56 + x58 >= 4
Raio_30_Distrito_57:  x4 + x13 + x25 + x30 + x31 + x32 + x40 + x47 + x54 + x57
 >= 4
Raio_30_Distrito_58:  x7 + x8 + x9 + x11 + x27 + x34 + x35 + x36 + x39 + x44
 + x45 + x48 + x50 + x52 + x56 + x58 >= 4
Raio_30_Distrito_59:  x1 + x2 + x3 + x5 + x15 + x16 + x26 + x35 + x43 + x50
 + x53 + x59 >= 4
Raio_40_Distrito_0:  x0 + x4 + x10 + x12 + x14 + x17 + x18 + x19 + x20 + x21
 + x23 + x28 + x29 + x31 + x32 + x33 + x37 + x38 + x40 + x41
 + x42 + x49 + x51 + x54 + x55 >= 5
Raio_40_Distrito_1:  x1 + x2 + x3 + x5 + x15 + x16 + x23 + x26 + x29 + x30
 + x35 + x43 + x44 + x46 + x50 + x52 + x53 + x59 >= 5
Raio_40_Distrito_2:  x1 + x2 + x3 + x5 + x13 + x15 + x16 + x25 + x26 + x30
 + x32 + x43 + x46 + x47 + x50 + x53 + x57 + x59 >= 5
Raio_40_Distrito_3:  x1 + x2 + x3 + x5 + x15 + x16 + x26 + x30 + x35 + x43
 + x44 + x46 + x50 + x52 + x53 + x59 >= 5
Raio_40_Distrito_4:  x0 + x4 + x14 + x15 + x16 + x17 + x19 + x20 + x21 + x23
 + x25 + x28 + x29 + x30 + x31 + x32 + x33 + x37 + x38 + x40
 + x41 + x42 + x44 + x46 + x51 + x54 + x55 + x57 >= 5
Raio_40_Distrito_5:  x1 + x2 + x3 + x5 + x15 + x16 + x23 + x25 + x26 + x29
 + x30 + x32 + x35 + x43 + x44 + x46 + x48 + x50 + x52 + x53
 + x59 >= 5
Raio_40_Distrito_6:  x6 + x7 + x9 + x10 + x22 + x36 + x39 + x45 + x56 >= 5
Raio_40_Distrito_7:  x6 + x7 + x8 + x9 + x10 + x11 + x22 + x27 + x28 + x34
 + x36 + x39 + x44 + x45 + x48 + x52 + x56 + x58 >= 5
Raio_40_Distrito_8:  x7 + x8 + x9 + x11 + x22 + x23 + x27 + x28 + x34 + x35
 + x36 + x39 + x44 + x45 + x46 + x48 + x50 + x52 + x56 + x58
 >= 5
Raio_40_Distrito_9:  x6 + x7 + x8 + x9 + x10 + x11 + x22 + x23 + x27 + x28
 + x34 + x35 + x36 + x39 + x44 + x45 + x46 + x48 + x50 + x52
 + x56 + x58 >= 5
Raio_40_Distrito_10:  x0 + x6 + x7 + x9 + x10 + x17 + x19 + x20 + x21 + x22
 + x23 + x28 + x34 + x36 + x39 + x45 + x48 + x49 + x51 + x55
 + x56 >= 5
Raio_40_Distrito_11:  x7 + x8 + x9 + x11 + x22 + x23 + x27 + x28 + x34 + x35
 + x36 + x39 + x44 + x45 + x46 + x48 + x50 + x52 + x56 + x58
 >= 5
Raio_40_Distrito_12:  x0 + x12 + x14 + x18 + x21 + x33 + x38 + x41 + x42 >= 5
Raio_40_Distrito_13:  x2 + x13 + x24 + x25 + x47 + x57 >= 5
Raio_40_Distrito_14:  x0 + x4 + x12 + x14 + x17 + x18 + x19 + x21 + x31 + x32
 + x33 + x37 + x38 + x40 + x41 + x42 + x51 + x54 + x55 + x57
 >= 5
Raio_40_Distrito_15:  x1 + x2 + x3 + x4 + x5 + x15 + x16 + x23 + x25 + x26
 + x28 + x29 + x30 + x31 + x32 + x34 + x35 + x37 + x39 + x40
 + x43 + x44 + x45 + x46 + x48 + x50 + x51 + x52 + x53 + x54
 + x59 >= 5
Raio_40_Distrito_16:  x1 + x2 + x3 + x4 + x5 + x15 + x16 + x23 + x25 + x26
 + x29 + x30 + x32 + x34 + x35 + x43 + x44 + x46 + x48 + x50
 + x52 + x53 + x54 + x59 >= 5
Raio_40_Distrito_17:  x0 + x4 + x10 + x14 + x17 + x19 + x20 + x21 + x23 + x28
 + x29 + x31 + x32 + x33 + x34 + x37 + x38 + x40 + x42 + x44
 + x45 + x49 + x51 + x55 >= 5
Raio_40_Distrito_18:  x0 + x12 + x14 + x18 + x21 + x33 + x38 + x41 + x42 >= 5
Raio_40_Distrito_19:  x0 + x4 + x10 + x14 + x17 + x19 + x20 + x21 + x23 + x28
 + x29 + x33 + x37 + x38 + x42 + x49 + x51 + x55 >= 5
Raio_40_Distrito_20:  x0 + x4 + x10 + x17 + x19 + x20 + x21 + x22 + x23 + x28
 + x29 + x33 + x34 + x37 + x38 + x42 + x45 + x49 + x51 + x55
 >= 5
Raio_40_Distrito_21:  x0 + x4 + x10 + x12 + x14 + x17 + x18 + x19 + x20 + x21
 + x33 + x37 + x38 + x41 + x42 + x49 + x51 + x55 >= 5
Raio_40_Distrito_22:  x6 + x7 + x8 + x9 + x10 + x11 + x20 + x22 + x28 + x34
 + x36 + x39 + x45 + x48 + x56 + x58 >= 5
Raio_40_Distrito_23:  x0 + x1 + x4 + x5 + x8 + x9 + x10 + x11 + x15 + x16
 + x17 + x19 + x20 + x23 + x26 + x27 + x28 + x29 + x30 + x31
 + x32 + x33 + x34 + x35 + x37 + x39 + x40 + x42 + x44 + x45
 + x46 + x48 + x50 + x51 + x52 + x53 + x55 + x56 + x58 >= 5
Raio_40_Distrito_24:  x13 + x24 + x25 + x47 + x57 >= 5
Raio_40_Distrito_25:  x2 + x4 + x5 + x13 + x15 + x16 + x24 + x25 + x30 + x31
 + x32 + x40 + x43 + x47 + x53 + x54 + x57 >= 5
Raio_40_Distrito_26:  x1 + x2 + x3 + x5 + x15 + x16 + x23 + x26 + x27 + x29
 + x30 + x34 + x35 + x43 + x44 + x46 + x48 + x50 + x52 + x53
 + x58 + x59 >= 5
Raio_40_Distrito_27:  x7 + x8 + x9 + x11 + x23 + x26 + x27 + x28 + x34 + x35
 + x36 + x39 + x44 + x45 + x46 + x48 + x50 + x52 + x56 + x58
 >= 5
Raio_40_Distrito_28:  x0 + x4 + x7 + x8 + x9 + x10 + x11 + x15 + x17 + x19
 + x20 + x22 + x23 + x27 + x28 + x29 + x32 + x34 + x36 + x37
 + x39 + x44 + x45 + x46 + x48 + x50 + x51 + x52 + x55 + x56
 + x58 >= 5
Raio_40_Distrito_29:  x0 + x1 + x4 + x5 + x15 + x16 + x17 + x19 + x20 + x23
 + x26 + x28 + x29 + x30 + x31 + x32 + x33 + x34 + x37 + x39
 + x40 + x42 + x44 + x45 + x46 + x48 + x50 + x51 + x52 + x53
 + x54 + x55 >= 5
Raio_40_Distrito_30:  x1 + x2 + x3 + x4 + x5 + x15 + x16 + x23 + x25 + x26
 + x29 + x30 + x31 + x32 + x37 + x40 + x42 + x43 + x44 + x46
 + x47 + x50 + x51 + x52 + x53 + x54 + x57 + x59 >= 5
Raio_40_Distrito_31:  x0 + x4 + x14 + x15 + x17 + x23 + x25 + x29 + x30 + x31
 + x32 + x33 + x37 + x38 + x40 + x41 + x42 + x46 + x47 + x51
 + x54 + x55 + x57 >= 5
Raio_40_Distrito_32:  x0 + x2 + x4 + x5 + x14 + x15 + x16 + x17 + x23 + x25
 + x28 + x29 + x30 + x31 + x32 + x33 + x37 + x38 + x40 + x41
 + x42 + x43 + x44 + x46 + x47 + x50 + x51 + x52 + x53 + x54
 + x55 + x57 >= 5
Raio_40_Distrito_33:  x0 + x4 + x12 + x14 + x17 + x18 + x19 + x20 + x21 + x23
 + x29 + x31 + x32 + x33 + x37 + x38 + x40 + x41 + x42 + x49
 + x51 + x54 + x55 + x57 >= 5
Raio_40_Distrito_34:  x7 + x8 + x9 + x10 + x11 + x15 + x16 + x17 + x20 + x22
 + x23 + x26 + x27 + x28 + x29 + x34 + x35 + x36 + x37 + x39
 + x44 + x45 + x46 + x48 + x50 + x51 + x52 + x55 + x56 + x58
 >= 5
Raio_40_Distrito_35:  x1 + x3 + x5 + x8 + x9 + x11 + x15 + x16 + x23 + x26
 + x27 + x34 + x35 + x39 + x43 + x44 + x46 + x48 + x50 + x52
 + x53 + x58 + x59 >= 5
Raio_40_Distrito_36:  x6 + x7 + x8 + x9 + x10 + x11 + x22 + x27 + x28 + x34
 + x36 + x39 + x44 + x45 + x48 + x56 + x58 >= 5
Raio_40_Distrito_37:  x0 + x4 + x14 + x15 + x17 + x19 + x20 + x21 + x23 + x28
 + x29 + x30 + x31 + x32 + x33 + x34 + x37 + x38 + x40 + x41
 + x42 + x44 + x45 + x46 + x48 + x49 + x51 + x54 + x55 >= 5
Raio_40_Distrito_38:  x0 + x4 + x12 + x14 + x17 + x18 + x19 + x20 + x21 + x31
 + x32 + x33 + x37 + x38 + x40 + x41 + x42 + x51 + x54 + x55
 >= 5
Raio_40_Distrito_39:  x6 + x7 + x8 + x9 + x10 + x11 + x15 + x22 + x23 + x27
 + x28 + x29 + x34 + x35 + x36 + x39 + x44 + x45 + x46 + x48
 + x50 + x52 + x56 + x58 >= 5
Raio_40_Distrito_40:  x0 + x4 + x14 + x15 + x17 + x23 + x25 + x29 + x30 + x31
 + x32 + x33 + x37 + x38 + x40 + x41 + x42 + x46 + x47 + x51
 + x54 + x55 + x57 >= 5
Raio_40_Distrito_41:  x0 + x4 + x12 + x14 + x18 + x21 + x31 + x32 + x33 + x37
 + x38 + x40 + x41 + x42 + x51 + x54 + x55 + x57 >= 5
Raio_40_Distrito_42:  x0 + x4 + x12 + x14 + x17 + x18 + x19 + x20 + x21 + x23
 + x29 + x30 + x31 + x32 + x33 + x37 + x38 + x40 + x41 + x42
 + x51 + x54 + x55 + x57 >= 5
Raio_40_Distrito_43:  x1 + x2 + x3 + x5 + x15 + x16 + x25 + x26 + x30 + x32
 + x35 + x43 + x46 + x47 + x50 + x52 + x53 + x54 + x57 + x59
 >= 5
Raio_40_Distrito_44:  x1 + x3 + x4 + x5 + x7 + x8 + x9 + x11 + x15 + x16
 + x17 + x23 + x26 + x27 + x28 + x29 + x30 + x32 + x34 + x35
 + x36 + x37 + x39 + x44 + x45 + x46 + x48 + x50 + x51 + x52
 + x53 + x55 + x56 + x58 >= 5
Raio_40_Distrito_45:  x6 + x7 + x8 + x9 + x10 + x11 + x15 + x17 + x20 + x22
 + x23 + x27 + x28 + x29 + x34 + x36 + x37 + x39 + x44 + x45
 + x46 + x48 + x50 + x51 + x52 + x55 + x56 + x58 >= 5
Raio_40_Distrito_46:  x1 + x2 + x3 + x4 + x5 + x8 + x9 + x11 + x15 + x16
 + x23 + x26 + x27 + x28 + x29 + x30 + x31 + x32 + x34 + x35
 + x37 + x39 + x40 + x43 + x44 + x45 + x46 + x48 + x50 + x51
 + x52 + x53 + x54 + x55 + x56 + x58 + x59 >= 5
Raio_40_Distrito_47:  x2 + x13 + x24 + x25 + x30 + x31 + x32 + x40 + x43 + x47
 + x54 + x57 >= 5
Raio_40_Distrito_48:  x5 + x7 + x8 + x9 + x10 + x11 + x15 + x16 + x22 + x23
 + x26 + x27 + x28 + x29 + x34 + x35 + x36 + x37 + x39 + x44
 + x45 + x46 + x48 + x50 + x51 + x52 + x55 + x56 + x58 >= 5
Raio_40_Distrito_49:  x0 + x10 + x17 + x19 + x20 + x21 + x33 + x37 + x49 + x51
 + x55 >= 5
Raio_40_Distrito_50:  x1 + x2 + x3 + x5 + x8 + x9 + x11 + x15 + x16 + x23
 + x26 + x27 + x28 + x29 + x30 + x32 + x34 + x35 + x39 + x43
 + x44 + x45 + x46 + x48 + x50 + x52 + x53 + x58 + x59 >= 5
Raio_40_Distrito_51:  x0 + x4 + x10 + x14 + x15 + x17 + x19 + x20 + x21 + x23
 + x28 + x29 + x30 + x31 + x32 + x33 + x34 + x37 + x38 + x40
 + x41 + x42 + x44 + x45 + x46 + x48 + x49 + x51 + x54 + x55
 >= 5
Raio_40_Distrito_52:  x1 + x3 + x5 + x7 + x8 + x9 + x11 + x15 + x16 + x23
 + x26 + x27 + x28 + x29 + x30 + x32 + x34 + x35 + x39 + x43
 + x44 + x45 + x46 + x48 + x50 + x52 + x53 + x56 + x58 + x59
 >= 5
Raio_40_Distrito_53:  x1 + x2 + x3 + x5 + x15 + x16 + x23 + x25 + x26 + x29
 + x30 + x32 + x35 + x43 + x44 + x46 + x50 + x52 + x53 + x59
 >= 5
Raio_40_Distrito_54:  x0 + x4 + x14 + x15 + x16 + x25 + x29 + x30 + x31 + x32
 + x33 + x37 + x38 + x40 + x41 + x42 + x43 + x46 + x47 + x51
 + x54 + x55 + x57 >= 5
Raio_40_Distrito_55:  x0 + x4 + x10 + x14 + x17 + x19 + x20 + x21 + x23 + x28
 + x29 + x31 + x32 + x33 + x34 + x37 + x38 + x40 + x41 + x42
 + x44 + x45 + x46 + x48 + x49 + x51 + x54 + x55 >= 5
Raio_40_Distrito_56:  x6 + x7 + x8 + x9 + x10 + x11 + x22 + x23 + x27 + x28
 + x34 + x36 + x39 + x44 + x45 + x46 + x48 + x52 + x56 + x58
 >= 5
Raio_40_Distrito_57:  x2 + x4 + x13 + x14 + x24 + x25 + x30 + x31 + x32 + x33
 + x40 + x41 + x42 + x43 + x47 + x54 + x57 >= 5
Raio_40_Distrito_58:  x7 + x8 + x9 + x11 + x22 + x23 + x26 + x27 + x28 + x34
 + x35 + x36 + x39 + x44 + x45 + x46 + x48 + x50 + x52 + x56
 + x58 >= 5
Raio_40_Distrito_59:  x1 + x2 + x3 + x5 + x15 + x16 + x26 + x30 + x35 + x43
 + x46 + x50 + x52 + x53 + x59 >= 5
DistMinUpa_5_Vizinho_16:  x5 + x16 <= 1
DistMinUpa_7_Vizinho_36:  x7 + x36 <= 1
DistMinUpa_8_Vizinho_58:  x8 + x58 <= 1
DistMinUpa_16_Vizinho_5:  x5 + x16 <= 1
DistMinUpa_31_Vizinho_40:  x31 + x40 <= 1
DistMinUpa_34_Vizinho_48:  x34 + x48 <= 1
DistMinUpa_36_Vizinho_7:  x7 + x36 <= 1
DistMinUpa_40_Vizinho_31:  x31 + x40 <= 1
DistMinUpa_48_Vizinho_34:  x34 + x48 <= 1
DistMinUpa_58_Vizinho_8:  x8 + x58 <= 1
Bounds
 0 <= x0 <= 1
 0 <= x1 <= 1
 0 <= x2 <= 1
 0 <= x3 <= 1
 0 <= x4 <= 1
 0 <= x5 <= 1
 0 <= x6 <= 1
 0 <= x7 <= 1
 0 <= x8 <= 1
 0 <= x9 <= 1
 0 <= x10 <= 1
 0 <= x11 <= 1
 0 <= x12 <= 1
 0 <= x13 <= 1
 0 <= x14 <= 1
 0 <= x15 <= 1
 0 <= x16 <= 1
 0 <= x17 <= 1
 0 <= x18 <= 1
 0 <= x19 <= 1
 0 <= x20 <= 1
 0 <= x21 <= 1
 0 <= x22 <= 1
 0 <= x23 <= 1
 0 <= x24 <= 1
 0 <= x25 <= 1
 0 <= x26 <= 1
 0 <= x27 <= 1
 0 <= x28 <= 1
 0 <= x29 <= 1
 0 <= x30 <= 1
 0 <= x31 <= 1
 0 <= x32 <= 1
 0 <= x33 <= 1
 0 <= x34 <= 1
 0 <= x35 <= 1
 0 <= x36 <= 1
 0 <= x37 <= 1
 0 <= x38 <= 1
 0 <= x39 <= 1
 0 <= x40 <= 1
 0 <= x41 <= 1
 0 <= x42 <= 1
 0 <= x43 <= 1
 0 <= x44 <= 1
 0 <= x45 <= 1
 0 <= x46 <= 1
 0 <= x47 <= 1
 0 <= x48 <= 1
 0 <= x49 <= 1
 0 <= x50 <= 1
 0 <= x51 <= 1
 0 <= x52 <= 1
 0 <= x53 <= 1
 0 <= x54 <= 1
 0 <= x55 <= 1
 0 <= x56 <= 1
 0 <= x57 <= 1
 0 <= x58 <= 1
 0 <= x59 <= 1
Integers
x0 x1 x2 x3 x4 x5 x6 x7 x8 x9 
x10 x11 x12 x13 x14 x15 x16 x17 x18 x19 
x20 x21 x22 x23 x24 x25 x26 x27 x28 x29 
x30 x31 x32 x33 x34 x35 x36 x37 x38 x39 
x40 x41 x42 x43 x44 x45 x46 x47 x48 x49 
x50 x51 x52 x53 x54 x55 x56 x57 x58 x59 
End
